
Log started (V11.0.0) Mon May 26 13:04:17 2008

Tried aggregator 1 time.
Reduced MIP has 550 rows, 25001 columns, and 50050 nonzeros.
Presolve time =    0.19 sec.
Clique table members: 500.
MIP emphasis: balance optimality and feasibility.
MIP search method: dynamic search.
Parallel mode: none, using 1 thread.
Root relaxation solution time =    2.28 sec.

        Nodes                                         Cuts/
   Node  Left     Objective  IInf  Best Integer     Best Node    ItCnt     Gap

*     0+    0                        30799.0000      523.5200     1127   98.30%
*     0+    0                          592.0000      523.5200     1127   11.57%
      0     0      524.0000    90      592.0000     Fract: 10     1154   11.49%
*     0+    0                          591.0000      524.0000     1154   11.34%
      0     0      524.0000    97      591.0000     Covers: 2     1165   11.34%
*     0+    0                          585.0000      524.0000     1165   10.43%
      0     0      524.0000    96      585.0000     Covers: 2     1178   10.43%
*     0+    0                          580.0000      524.0000     1178    9.66%
*     0+    0                          573.0000      524.0000     1178    8.55%
*     0+    0                          570.0000      524.0000     1178    8.07%
*     0+    0                          564.0000      524.0000     1178    7.09%
      0     2      524.0000    96      564.0000      524.0000     1178    7.09%
*    10+   10                          563.0000      524.0000     1336    6.93%
*    20+   20                          561.0000      524.0000     1570    6.60%
*    30+   30                          560.0000      524.0000     1821    6.43%
*    30+   30                          559.0000      524.0000     1821    6.26%
*    40+   40                          557.0000      524.0000     2197    5.92%
*    40+   40                          555.0000      524.0000     2197    5.59%
*    70+   70                          554.0000      524.0000     3687    5.42%
*   100+  100                          553.0000      524.0000     5706    5.24%
    100   102      524.0000    86      553.0000      524.0000     5706    5.24%
*   110+  110                          552.0000      524.0000     6469    5.07%
*   110+  110                          551.0000      524.0000     6469    4.90%
*   120+  120                          550.0000      524.0000     7351    4.73%
*   130+  130                          549.0000      524.0000     8190    4.55%
*   140+  140                          547.0000      524.0000     8982    4.20%
*   150+  150                          546.0000      524.0000    10356    4.03%
*   160+  160                          545.0000      524.0000    11434    3.85%
*   160+  160                          543.0000      524.0000    11434    3.50%
*   170+  170                          542.0000      524.0000    12520    3.32%
*   180+  180                          541.0000      524.0000    13942    3.14%
*   190+  190                          540.0000      524.0000    15275    2.96%
    200   202      524.0000    92      540.0000      524.0000    16332    2.96%
*   210+  210                          539.0000      524.0000    18405    2.78%
    300   302      524.0000    90      539.0000      524.0000    42817    2.78%
*   310+  310                          538.0000      524.0000    45063    2.60%
*   310+  310                          537.0000      524.0000    45063    2.42%
*   400+  399                          536.0000      524.0000    57149    2.24%
    400   401      525.0000    87      536.0000      524.0000    57149    2.24%
    500   497      525.0000    87      536.0000      524.0000   100507    2.24%
*   512+  506                          535.0000      524.0000   107256    2.06%
    600   533      524.0000    96      535.0000      524.0000   120077    2.06%
    700   555      524.0000    88      535.0000      524.0000   129825    2.06%
    800   590      524.0000    88      535.0000      524.0000   151522    2.06%
    900   616      525.0000    85      535.0000      524.0000   170744    2.06%
   1000   649      525.0000    94      535.0000      524.0000   214251    2.06%
Elapsed time = 336.78 sec. (tree size =  9.02 MB, solutions = 32)
   1100   676      526.0000    86      535.0000      524.0000   241231    2.06%
   1200   706      526.0000    87      535.0000      524.0000   290423    2.06%
   1300   784      527.0000    87      535.0000      524.0000   331075    2.06%
   1400   883      528.0000    82      535.0000      524.0000   403111    2.06%
   1500   983      528.0000    86      535.0000      524.0000   430946    2.06%
   1600  1080      529.0000    78      535.0000      524.0000   543525    2.06%
   1700  1176      530.0000    64      535.0000      524.0000   625655    2.06%
   1800  1276      530.0000    75      535.0000      524.0000   633354    2.06%
   1900  1368      531.0000    65      535.0000      524.0000   649025    2.06%
   2000  1467      531.0000    76      535.0000      524.0000   654887    2.06%
Elapsed time = 821.39 sec. (tree size = 22.46 MB, solutions = 32)
   2100  1561      533.0000    67      535.0000      524.0000   659012    2.06%
   2200  1657      534.0000    63      535.0000      524.0000   661612    2.06%
   2300  1750      524.0000    91      535.0000      524.0000   670377    2.06%
   2400  1850      524.0000    88      535.0000      524.0000   683966    2.06%
   2500  1946      524.0000    89      535.0000      524.0000   713295    2.06%
   2600  2044      525.0000    90      535.0000      524.0000   727691    2.06%
   2700  2140      525.0000    91      535.0000      524.0000   778537    2.06%
   2800  2226      526.0000    77      535.0000      524.0000   841371    2.06%
   2900  2326      526.0000    84      535.0000      524.0000   885652    2.06%
   3000  2419      527.0000    79      535.0000      524.0000   945681    2.06%
Elapsed time = 1163.94 sec. (tree size = 37.50 MB, solutions = 32)
   3100  2519      527.0000    91      535.0000      524.0000   999140    2.06%
   3200  2613      528.0000    91      535.0000      524.0000  1053913    2.06%
   3300  2709      529.0000    85      535.0000      524.0000  1136112    2.06%
   3400  2803      530.0000    76      535.0000      524.0000  1195946    2.06%
   3500  2902      531.0000    70      535.0000      524.0000  1254056    2.06%
   3600  3002      531.0000    75      535.0000      524.0000  1261293    2.06%
   3700  3096      532.0000    58      535.0000      524.0000  1265944    2.06%
   3800  3187    infeasible            535.0000      524.0000  1269241    2.06%
   3900  3262      525.0000    93      535.0000      524.0000  1324146    2.06%
   4000  3361      525.0000    86      535.0000      524.0000  1330502    2.06%
Elapsed time = 1580.17 sec. (tree size = 53.81 MB, solutions = 32)
   4100  3461      525.0000    90      535.0000      524.0000  1339577    2.06%
*  4113+ 3261                          533.0000      524.0000  1341440    1.69%
   4200  3349      525.0000    88      533.0000      524.0000  1347911    1.69%
   4300  3448      526.0000    86      533.0000      524.0000  1365245    1.69%
   4400  3547      525.0000    89      533.0000      524.0000  1373148    1.69%
   4500  3647      525.0000    90      533.0000      524.0000  1386347    1.69%
   4600  3746      525.0000    91      533.0000      524.0000  1412755    1.69%
   4700  3845      526.0000    84      533.0000      524.0000  1476969    1.69%
   4800  3944      530.0000    67      533.0000      524.0000  1493678    1.69%
   4900  4044      530.0000    85      533.0000      524.0000  1523349    1.69%
   5000  4143      525.0000    93      533.0000      524.0000  1547484    1.69%
Elapsed time = 1902.39 sec. (tree size = 73.13 MB, solutions = 33)
   5100  4243      525.0000    93      533.0000      524.0000  1606986    1.69%
   5200  4342      525.0000    93      533.0000      524.0000  1673748    1.69%
   5300  4442      525.0000    84      533.0000      524.0000  1760991    1.69%
   5400  4541      525.0000    89      533.0000      524.0000  1810888    1.69%
   5500  4641      525.0000    88      533.0000      524.0000  1871680    1.69%
   5600  4740      525.0000    91      533.0000      524.0000  1897429    1.69%
   5700  4840      528.0000    69      533.0000      524.0000  1959788    1.69%
   5800  4939      525.0000    90      533.0000      524.0000  1970658    1.69%
   5900  5039      525.0000    79      533.0000      524.0000  2045883    1.69%
   6000  5138      525.0000    87      533.0000      524.0000  2105204    1.69%
Elapsed time = 2479.84 sec. (tree size = 97.30 MB, solutions = 33)
   6100  5238      525.0000    90      533.0000      524.0000  2195327    1.69%
   6200  5337      525.0000    88      533.0000      524.0000  2216687    1.69%
   6300  5437      526.0000    82      533.0000      524.0000  2275348    1.69%
   6400  5536      525.0000    87      533.0000      524.0000  2318687    1.69%
   6500  5636      525.0000    85      533.0000      524.0000  2425615    1.69%
   6600  5736      524.0000    92      533.0000      524.0000  2465264    1.69%
   6700  5835      525.0000    82      533.0000      524.0000  2520330    1.69%
   6800  5935      524.0000    90      533.0000      524.0000  2565933    1.69%
   6900  6031      524.0000    88      533.0000      524.0000  2682298    1.69%
   7000  6129      525.0000    83      533.0000      524.0000  2735158    1.69%
Elapsed time = 3166.28 sec. (tree size = 122.17 MB, solutions = 33)
   7100  6229      525.0000    91      533.0000      524.0000  2777498    1.69%
   7200  6328      530.0000    53      533.0000      524.0000  2836795    1.69%
Began writing nodes to disk (directory ./cpxa04064 created)
   7300  6428      532.0000    79      533.0000      524.0000  2850061    1.69%
   7400  6523      524.0000    89      533.0000      524.0000  2968460    1.69%
   7500  6620      525.0000    79      533.0000      524.0000  3026053    1.69%
   7600  6717      525.0000    76      533.0000      524.0000  3112861    1.69%
   7700  6817      525.0000    84      533.0000      524.0000  3157021    1.69%
   7800  6916      525.0000    91      533.0000      524.0000  3183516    1.69%
   7900  7016      525.0000    83      533.0000      524.0000  3222103    1.69%
   8000  7115      530.0000    73      533.0000      524.0000  3241374    1.69%
Elapsed time = 3793.02 sec. (tree size = 149.21 MB, solutions = 33)
Nodefile size = 21.84 MB (15.13 MB after compression)
   8100  7215      530.0000    77      533.0000      524.0000  3254080    1.69%
   8200  7314      525.0000    87      533.0000      524.0000  3276422    1.69%
   8300  7414      532.0000    56      533.0000      524.0000  3297569    1.69%
   8400  7508      524.0000    92      533.0000      524.0000  3401160    1.69%
   8500  7602      525.0000    94      533.0000      524.0000  3442541    1.69%
   8600  7701      530.0000    54      533.0000      524.0000  3463129    1.69%
   8700  7801      530.0000    79      533.0000      524.0000  3469826    1.69%
   8800  7900      525.0000    89      533.0000      524.0000  3499822    1.69%
   8900  8000      525.0000    87      533.0000      524.0000  3560792    1.69%
   9000  8099      525.0000    91      533.0000      524.0000  3595943    1.69%
Elapsed time = 4256.44 sec. (tree size = 177.95 MB, solutions = 33)
Nodefile size = 50.47 MB (35.13 MB after compression)
   9100  8199      532.0000    31      533.0000      524.0000  3651778    1.69%
   9200  8292      524.0029   104      533.0000      524.0000  3780550    1.69%
   9300  8391      525.0000    85      533.0000      524.0000  3818488    1.69%
   9400  8485      525.0000    90      533.0000      524.0000  3891101    1.69%
   9500  8585      525.0000    92      533.0000      524.0000  4000220    1.69%
   9600  8684      526.0000    89      533.0000      524.0000  4048902    1.69%
   9700  8784      532.0000    61      533.0000      524.0000  4066094    1.69%
   9800  8883      525.0000    86      533.0000      524.0000  4075492    1.69%
   9900  8983      525.0000    91      533.0000      524.0000  4104519    1.69%
  10000  9081      525.0000    79      533.0000      524.0000  4147967    1.69%
Elapsed time = 4961.84 sec. (tree size = 208.09 MB, solutions = 33)
Nodefile size = 80.50 MB (56.42 MB after compression)
  10100  9181      525.0000    89      533.0000      524.0000  4247249    1.69%
  10200  9280      531.0000    42      533.0000      524.0000  4280162    1.69%
  10300  9380      532.0000    73      533.0000      524.0000  4290468    1.69%
  10400  9477      524.0000    93      533.0000      524.0000  4364183    1.69%
  10500  9575      525.0000    89      533.0000      524.0000  4404711    1.69%
  10600  9674      525.0000    83      533.0000      524.0000  4426022    1.69%
  10700  9774      525.0000    89      533.0000      524.0000  4468590    1.69%
  10800  9873      524.0000    92      533.0000      524.0000  4537699    1.69%
  10900  9965      525.0000    84      533.0000      524.0000  4607166    1.69%
  11000 10064      525.0000    86      533.0000      524.0000  4630208    1.69%
Elapsed time = 5603.39 sec. (tree size = 239.31 MB, solutions = 33)
Nodefile size = 111.44 MB (79.64 MB after compression)
  11100 10164      532.0000    55      533.0000      524.0000  4641943    1.69%
  11200 10263      525.0000    91      533.0000      524.0000  4653494    1.69%
  11300 10363      525.0000    85      533.0000      524.0000  4723370    1.69%
  11400 10462      525.0000    80      533.0000      524.0000  4758552    1.69%
  11500 10562      525.0000    86      533.0000      524.0000  4887343    1.69%
  11600 10661      525.0000    88      533.0000      524.0000  4948874    1.69%
  11700 10761      525.0000    92      533.0000      524.0000  5054696    1.69%
  11800 10860      525.0000    84      533.0000      524.0000  5105704    1.69%
  11900 10960      532.0000    71      533.0000      524.0000  5114362    1.69%
  12000 11059      525.0000    85      533.0000      524.0000  5136363    1.69%
Elapsed time = 6262.86 sec. (tree size = 272.60 MB, solutions = 33)
Nodefile size = 144.83 MB (105.77 MB after compression)
  12100 11159      528.0000    85      533.0000      524.0000  5147014    1.69%
  12200 11258      525.0000    84      533.0000      524.0000  5168490    1.69%
  12300 11358      525.0000    89      533.0000      524.0000  5210868    1.69%
  12400 11455      524.0000    95      533.0000      524.0000  5304260    1.69%
  12500 11548      525.0000    88      533.0000      524.0000  5408069    1.69%
  12600 11647      531.0000    62      533.0000      524.0000  5421433    1.69%
  12700 11747      532.0000    73      533.0000      524.0000  5425518    1.69%
  12800 11846      525.0000    89      533.0000      524.0000  5467370    1.69%
  12900 11946      525.0000    85      533.0000      524.0000  5538914    1.69%
  13000 12045      525.0000    90      533.0000      524.0000  5583715    1.69%
Elapsed time = 6895.61 sec. (tree size = 306.81 MB, solutions = 33)
Nodefile size = 179.22 MB (132.99 MB after compression)
  13100 12145      527.0000    83      533.0000      524.0000  5682562    1.69%
  13200 12244      525.0000    82      533.0000      524.0000  5726601    1.69%
  13300 12344      525.0000    90      533.0000      524.0000  5809045    1.69%

Cover cuts applied:  1776
Mixed integer rounding cuts applied:  14
Zero-half cuts applied:  2

Solution pool: 33 solutions saved.

MIP - Time limit exceeded, integer feasible:  Objective = 5.3300000000e+002
Current MIP best bound = 5.2400000000e+002 (gap = 9, 1.69%)
Solution time = 7200.03 sec.  Iterations = 5825047  Nodes = 13311 (12354)


Incumbent solution
Variable Name           Solution Value
Cmax                        533.000000
X_1_41                        1.000000
X_2_35                        1.000000
X_3_23                        1.000000
X_4_30                        1.000000
X_5_37                        1.000000
X_6_49                        1.000000
X_7_39                        1.000000
X_8_28                        1.000000
X_9_9                         1.000000
X_10_18                       1.000000
X_11_41                       1.000000
X_12_32                       1.000000
X_13_10                       1.000000
X_14_19                       1.000000
X_15_4                        1.000000
X_16_4                        1.000000
X_17_21                       1.000000
X_18_4                        1.000000
X_19_9                        1.000000
X_20_24                       1.000000
X_21_43                       1.000000
X_22_29                       1.000000
X_23_36                       1.000000
X_24_9                        1.000000
X_25_39                       1.000000
X_26_48                       1.000000
X_27_47                       1.000000
X_28_47                       1.000000
X_29_50                       1.000000
X_30_26                       1.000000
X_31_46                       1.000000
X_32_16                       1.000000
X_33_41                       1.000000
X_34_47                       1.000000
X_35_24                       1.000000
X_36_34                       1.000000
X_37_3                        1.000000
X_38_22                       1.000000
X_39_15                       1.000000
X_40_1                        1.000000
X_41_30                       1.000000
X_42_16                       1.000000
X_43_38                       1.000000
X_44_41                       1.000000
X_45_5                        1.000000
X_46_28                       1.000000
X_47_48                       1.000000
X_48_3                        1.000000
X_49_46                       1.000000
X_50_32                       1.000000
X_51_3                        1.000000
X_52_4                        1.000000
X_53_29                       1.000000
X_54_30                       1.000000
X_55_33                       1.000000
X_56_25                       1.000000
X_57_12                       1.000000
X_58_22                       1.000000
X_59_12                       1.000000
X_60_21                       1.000000
X_61_12                       1.000000
X_62_38                       1.000000
X_63_35                       1.000000
X_64_36                       1.000000
X_65_49                       1.000000
X_66_14                       1.000000
X_67_41                       1.000000
X_68_37                       1.000000
X_69_24                       1.000000
X_70_23                       1.000000
X_71_2                        1.000000
X_72_12                       1.000000
X_73_37                       1.000000
X_74_12                       1.000000
X_75_18                       1.000000
X_76_34                       1.000000
X_77_40                       1.000000
X_78_15                       1.000000
X_79_7                        1.000000
X_80_13                       1.000000
X_81_5                        1.000000
X_82_48                       1.000000
X_83_36                       1.000000
X_84_50                       1.000000
X_85_9                        1.000000
X_86_46                       1.000000
X_87_25                       1.000000
X_88_46                       1.000000
X_89_39                       1.000000
X_90_45                       1.000000
X_91_12                       1.000000
X_92_46                       1.000000
X_93_31                       1.000000
X_94_7                        1.000000
X_95_19                       1.000000
X_96_17                       1.000000
X_97_36                       1.000000
X_98_1                        1.000000
X_99_49                       1.000000
X_100_8                       1.000000
X_101_25                      1.000000
X_102_46                      1.000000
X_103_38                      1.000000
X_104_45                      1.000000
X_105_26                      1.000000
X_106_4                       1.000000
X_107_20                      1.000000
X_108_49                      1.000000
X_109_31                      1.000000
X_110_2                       1.000000
X_111_26                      1.000000
X_112_11                      1.000000
X_113_20                      1.000000
X_114_36                      1.000000
X_115_31                      1.000000
X_116_19                      1.000000
X_117_15                      1.000000
X_118_45                      1.000000
X_119_35                      1.000000
X_120_24                      1.000000
X_121_33                      1.000000
X_122_50                      1.000000
X_123_18                      1.000000
X_124_18                      1.000000
X_125_6                       1.000000
X_126_17                      1.000000
X_127_8                       1.000000
X_128_16                      1.000000
X_129_2                       1.000000
X_130_22                      1.000000
X_131_11                      1.000000
X_132_14                      1.000000
X_133_28                      1.000000
X_134_4                       1.000000
X_135_11                      1.000000
X_136_38                      1.000000
X_137_27                      1.000000
X_138_26                      1.000000
X_139_39                      1.000000
X_140_2                       1.000000
X_141_38                      1.000000
X_142_17                      1.000000
X_143_19                      1.000000
X_144_6                       1.000000
X_145_39                      1.000000
X_146_41                      1.000000
X_147_22                      1.000000
X_148_6                       1.000000
X_149_23                      1.000000
X_150_21                      1.000000
X_151_40                      1.000000
X_152_24                      1.000000
X_153_16                      1.000000
X_154_25                      1.000000
X_155_15                      1.000000
X_156_16                      1.000000
X_157_42                      1.000000
X_158_19                      1.000000
X_159_29                      1.000000
X_160_6                       1.000000
X_161_44                      1.000000
X_162_11                      1.000000
X_163_1                       1.000000
X_164_49                      1.000000
X_165_42                      1.000000
X_166_45                      1.000000
X_167_1                       1.000000
X_168_15                      1.000000
X_169_8                       1.000000
X_170_7                       1.000000
X_171_31                      1.000000
X_172_23                      1.000000
X_173_9                       1.000000
X_174_7                       1.000000
X_175_29                      1.000000
X_176_46                      1.000000
X_177_14                      1.000000
X_178_32                      1.000000
X_179_8                       1.000000
X_180_1                       1.000000
X_181_29                      1.000000
X_182_20                      1.000000
X_183_26                      1.000000
X_184_30                      1.000000
X_185_30                      1.000000
X_186_27                      1.000000
X_187_14                      1.000000
X_188_27                      1.000000
X_189_30                      1.000000
X_190_29                      1.000000
X_191_33                      1.000000
X_192_43                      1.000000
X_193_22                      1.000000
X_194_10                      1.000000
X_195_13                      1.000000
X_196_23                      1.000000
X_197_7                       1.000000
X_198_22                      1.000000
X_199_32                      1.000000
X_200_49                      1.000000
X_201_24                      1.000000
X_202_50                      1.000000
X_203_28                      1.000000
X_204_2                       1.000000
X_205_8                       1.000000
X_206_15                      1.000000
X_207_10                      1.000000
X_208_8                       1.000000
X_209_39                      1.000000
X_210_47                      1.000000
X_211_48                      1.000000
X_212_47                      1.000000
X_213_37                      1.000000
X_214_14                      1.000000
X_215_39                      1.000000
X_216_45                      1.000000
X_217_11                      1.000000
X_218_24                      1.000000
X_219_30                      1.000000
X_220_31                      1.000000
X_221_39                      1.000000
X_222_48                      1.000000
X_223_35                      1.000000
X_224_35                      1.000000
X_225_34                      1.000000
X_226_15                      1.000000
X_227_34                      1.000000
X_228_42                      1.000000
X_229_28                      1.000000
X_230_1                       1.000000
X_231_12                      1.000000
X_232_19                      1.000000
X_233_37                      1.000000
X_234_45                      1.000000
X_235_10                      1.000000
X_236_26                      1.000000
X_237_3                       1.000000
X_238_48                      1.000000
X_239_15                      1.000000
X_240_39                      1.000000
X_241_4                       1.000000
X_242_47                      1.000000
X_243_13                      1.000000
X_244_32                      1.000000
X_245_9                       1.000000
X_246_32                      1.000000
X_247_7                       1.000000
X_248_11                      1.000000
X_249_14                      1.000000
X_250_13                      1.000000
X_251_14                      1.000000
X_252_24                      1.000000
X_253_43                      1.000000
X_254_42                      1.000000
X_255_20                      1.000000
X_256_15                      1.000000
X_257_40                      1.000000
X_258_30                      1.000000
X_259_4                       1.000000
X_260_37                      1.000000
X_261_9                       1.000000
X_262_10                      1.000000
X_263_31                      1.000000
X_264_41                      1.000000
X_265_5                       1.000000
X_266_40                      1.000000
X_267_25                      1.000000
X_268_42                      1.000000
X_269_26                      1.000000
X_270_31                      1.000000
X_271_13                      1.000000
X_272_12                      1.000000
X_273_14                      1.000000
X_274_21                      1.000000
X_275_44                      1.000000
X_276_26                      1.000000
X_277_17                      1.000000
X_278_43                      1.000000
X_279_33                      1.000000
X_280_14                      1.000000
X_281_49                      1.000000
X_282_20                      1.000000
X_283_18                      1.000000
X_284_31                      1.000000
X_285_37                      1.000000
X_286_5                       1.000000
X_287_41                      1.000000
X_288_14                      1.000000
X_289_32                      1.000000
X_290_45                      1.000000
X_291_38                      1.000000
X_292_27                      1.000000
X_293_27                      1.000000
X_294_16                      1.000000
X_295_24                      1.000000
X_296_43                      1.000000
X_297_18                      1.000000
X_298_1                       1.000000
X_299_21                      1.000000
X_300_45                      1.000000
X_301_33                      1.000000
X_302_44                      1.000000
X_303_43                      1.000000
X_304_43                      1.000000
X_305_6                       1.000000
X_306_17                      1.000000
X_307_7                       1.000000
X_308_49                      1.000000
X_309_35                      1.000000
X_310_40                      1.000000
X_311_34                      1.000000
X_312_43                      1.000000
X_313_18                      1.000000
X_314_33                      1.000000
X_315_19                      1.000000
X_316_40                      1.000000
X_317_43                      1.000000
X_318_1                       1.000000
X_319_6                       1.000000
X_320_24                      1.000000
X_321_22                      1.000000
X_322_35                      1.000000
X_323_44                      1.000000
X_324_27                      1.000000
X_325_23                      1.000000
X_326_25                      1.000000
X_327_29                      1.000000
X_328_2                       1.000000
X_329_17                      1.000000
X_330_5                       1.000000
X_331_24                      1.000000
X_332_2                       1.000000
X_333_31                      1.000000
X_334_40                      1.000000
X_335_37                      1.000000
X_336_14                      1.000000
X_337_2                       1.000000
X_338_44                      1.000000
X_339_42                      1.000000
X_340_30                      1.000000
X_341_40                      1.000000
X_342_32                      1.000000
X_343_39                      1.000000
X_344_39                      1.000000
X_345_9                       1.000000
X_346_34                      1.000000
X_347_5                       1.000000
X_348_10                      1.000000
X_349_33                      1.000000
X_350_38                      1.000000
X_351_48                      1.000000
X_352_1                       1.000000
X_353_21                      1.000000
X_354_3                       1.000000
X_355_33                      1.000000
X_356_11                      1.000000
X_357_25                      1.000000
X_358_36                      1.000000
X_359_19                      1.000000
X_360_17                      1.000000
X_361_24                      1.000000
X_362_4                       1.000000
X_363_3                       1.000000
X_364_13                      1.000000
X_365_33                      1.000000
X_366_11                      1.000000
X_367_44                      1.000000
X_368_2                       1.000000
X_369_37                      1.000000
X_370_3                       1.000000
X_371_11                      1.000000
X_372_34                      1.000000
X_373_11                      1.000000
X_374_42                      1.000000
X_375_30                      1.000000
X_376_30                      1.000000
X_377_3                       1.000000
X_378_8                       1.000000
X_379_15                      1.000000
X_380_36                      1.000000
X_381_44                      1.000000
X_382_34                      1.000000
X_383_15                      1.000000
X_384_11                      1.000000
X_385_2                       1.000000
X_386_20                      1.000000
X_387_35                      1.000000
X_388_4                       1.000000
X_389_17                      1.000000
X_390_5                       1.000000
X_391_6                       1.000000
X_392_46                      1.000000
X_393_41                      1.000000
X_394_26                      1.000000
X_395_13                      1.000000
X_396_18                      1.000000
X_397_2                       1.000000
X_398_10                      1.000000
X_399_3                       1.000000
X_400_1                       1.000000
X_401_21                      1.000000
X_402_20                      1.000000
X_403_17                      1.000000
X_404_46                      1.000000
X_405_49                      1.000000
X_406_50                      1.000000
X_407_41                      1.000000
X_408_50                      1.000000
X_409_14                      1.000000
X_410_7                       1.000000
X_411_44                      1.000000
X_412_40                      1.000000
X_413_12                      1.000000
X_414_7                       1.000000
X_415_22                      1.000000
X_416_10                      1.000000
X_417_19                      1.000000
X_418_21                      1.000000
X_419_34                      1.000000
X_420_29                      1.000000
X_421_41                      1.000000
X_422_2                       1.000000
X_423_9                       1.000000
X_424_2                       1.000000
X_425_26                      1.000000
X_426_36                      1.000000
X_427_18                      1.000000
X_428_28                      1.000000
X_429_38                      1.000000
X_430_12                      1.000000
X_431_36                      1.000000
X_432_37                      1.000000
X_433_7                       1.000000
X_434_20                      1.000000
X_435_23                      1.000000
X_436_16                      1.000000
X_437_4                       1.000000
X_438_39                      1.000000
X_439_18                      1.000000
X_440_9                       1.000000
X_441_25                      1.000000
X_442_8                       1.000000
X_443_47                      1.000000
X_444_22                      1.000000
X_445_32                      1.000000
X_446_28                      1.000000
X_447_30                      1.000000
X_448_15                      1.000000
X_449_48                      1.000000
X_450_47                      1.000000
X_451_43                      1.000000
X_452_41                      1.000000
X_453_5                       1.000000
X_454_42                      1.000000
X_455_45                      1.000000
X_456_45                      1.000000
X_457_19                      1.000000
X_458_8                       1.000000
X_459_27                      1.000000
X_460_12                      1.000000
X_461_43                      1.000000
X_462_26                      1.000000
X_463_38                      1.000000
X_464_16                      1.000000
X_465_7                       1.000000
X_466_38                      1.000000
X_467_25                      1.000000
X_468_10                      1.000000
X_469_37                      1.000000
X_470_36                      1.000000
X_471_39                      1.000000
X_472_24                      1.000000
X_473_48                      1.000000
X_474_27                      1.000000
X_475_21                      1.000000
X_476_24                      1.000000
X_477_25                      1.000000
X_478_5                       1.000000
X_479_29                      1.000000
X_480_11                      1.000000
X_481_21                      1.000000
X_482_33                      1.000000
X_483_43                      1.000000
X_484_28                      1.000000
X_485_23                      1.000000
X_486_4                       1.000000
X_487_35                      1.000000
X_488_9                       1.000000
X_489_44                      1.000000
X_490_22                      1.000000
X_491_50                      1.000000
X_492_49                      1.000000
X_493_44                      1.000000
X_494_4                       1.000000
X_495_23                      1.000000
X_496_19                      1.000000
X_497_15                      1.000000
X_498_37                      1.000000
X_499_35                      1.000000
X_500_25                      1.000000
All other variables in the range 1-25001 are 0.
